
Gurobi 11.0.3 (linux64) logging started Fri Nov 22 21:09:59 2024

Set parameter LogFile to value "/home/yihong/Coding/OR_SUC/SUC_results_bigM100000_thread4/case24_ieee_rts_theta0.1_epsilon0.025_gurobi_seed530000_num_gen100_N_WDR100_load_scaling_factor1_proposed_T8quadra_cost.txt"
Set parameter TimeLimit to value 3600
Gurobi Optimizer version 11.0.3 build v11.0.3rc0 (linux64 - "Ubuntu 20.04.6 LTS")

CPU model: AMD EPYC 7532 32-Core Processor, instruction set [SSE2|AVX|AVX2]
Thread count: 64 physical cores, 128 logical processors, using up to 4 threads

Optimize a model with 16982 rows, 10021 columns and 235066 nonzeros
Model fingerprint: 0x1eb3ac07
Model has 800 quadratic constraints
Variable types: 9221 continuous, 800 integer (800 binary)
Coefficient statistics:
  Matrix range     [3e-04, 3e+03]
  QMatrix range    [2e-03, 8e-03]
  QLMatrix range   [2e-01, 6e+01]
  Objective range  [1e+00, 1e+00]
  Bounds range     [1e+00, 1e+00]
  RHS range        [1e+00, 9e+03]
Presolve removed 13894 rows and 4492 columns
Presolve time: 0.07s
Presolved: 3088 rows, 5529 columns, 20556 nonzeros
Presolved model has 800 quadratic constraint(s)
Variable types: 4729 continuous, 800 integer (800 binary)

Root relaxation: objective 1.347726e+04, 2434 iterations, 0.04 seconds (0.05 work units)

    Nodes    |    Current Node    |     Objective Bounds      |     Work
 Expl Unexpl |  Obj  Depth IntInf | Incumbent    BestBd   Gap | It/Node Time

     0     0 13477.2630    0    -          - 13477.2630      -     -    0s
     0     0 94705.7724    0  232          - 94705.7724      -     -    0s
     0     0 191686.981    0   96          - 191686.981      -     -    0s
     0     0 191784.570    0   96          - 191784.570      -     -    0s
     0     0 191784.570    0   72          - 191784.570      -     -    0s
     0     0 191784.570    0   72          - 191784.570      -     -    0s
     0     0 191784.570    0   72          - 191784.570      -     -    0s
     0     0 191784.570    0   72          - 191784.570      -     -    0s
     0     2 191784.570    0   72          - 191784.570      -     -    1s
H  173   201                    191838.76317 191814.504  0.01%  11.2    1s
*  173   201              51    191838.76317 191814.504  0.01%  11.2    1s

Cutting planes:
  Gomory: 131
  Lift-and-project: 1
  Implied bound: 201
  MIR: 45
  Flow cover: 102
  RLT: 83

Explored 220 nodes (9176 simplex iterations) in 2.05 seconds (2.35 work units)
Thread count was 4 (of 128 available processors)

Solution count 2: 191839 191839 

Optimal solution found (tolerance 1.00e-03)
Warning: max constraint violation (2.2046e-07) exceeds tolerance
Best objective 1.918387631731e+05, best bound 1.918152249984e+05, gap 0.0123%
